Route #1: 1 24 10 29 8 33 14 21 11 1
Route #2: 1 27 30 28 19 44 39 1
Route #3: 1 15 36 32 2 7 45 1
Route #4: 1 18 6 22 34 42 9 4 23 13 1
Route #5: 1 3 26 40 37 43 5 17 16 1
Route #6: 1 25 38 35 12 41 20 31 1
cost: 1054
